p cnf 967 2484
51 -2 -1 0
-51 2 0
-51 1 0
52 -51 -3 0
-52 51 0
-52 3 0
53 -700 -4 0
-53 700 0
-53 4 0
54 -53 -701 0
-54 53 0
-54 701 0
55 -702 -703 0
-55 702 0
-55 703 0
56 -704 -7 0
-56 704 0
-56 7 0
57 -56 -9 0
-57 56 0
-57 9 0
58 -705 -55 0
-58 705 0
-58 55 0
59 -706 -7 0
-59 706 0
-59 7 0
60 -59 -11 0
-60 59 0
-60 11 0
61 -707 -58 0
-61 707 0
-61 58 0
62 -13 -708 0
-62 13 0
-62 708 0
63 -62 -14 0
-63 62 0
-63 14 0
64 -709 -61 0
-64 709 0
-64 61 0
65 -710 -15 0
-65 710 0
-65 15 0
66 -65 -711 0
-66 65 0
-66 711 0
67 -712 -64 0
-67 712 0
-67 64 0
68 -713 -700 0
-68 713 0
-68 700 0
69 -68 -9 0
-69 68 0
-69 9 0
70 -714 -67 0
-70 714 0
-70 67 0
71 -18 -715 0
-71 18 0
-71 715 0
72 -71 -716 0
-72 71 0
-72 716 0
73 -717 -70 0
-73 717 0
-73 70 0
74 -718 -719 0
-74 718 0
-74 719 0
75 -74 -720 0
-75 74 0
-75 720 0
76 -721 -73 0
-76 721 0
-76 73 0
77 -21 -722 0
-77 21 0
-77 722 0
78 -77 -723 0
-78 77 0
-78 723 0
79 -724 -76 0
-79 724 0
-79 76 0
80 -24 -23 0
-80 24 0
-80 23 0
81 -80 -5 0
-81 80 0
-81 5 0
82 -725 -79 0
-82 725 0
-82 79 0
83 -726 -727 0
-83 726 0
-83 727 0
84 -83 -728 0
-84 83 0
-84 728 0
85 -729 -82 0
-85 729 0
-85 82 0
86 -730 -719 0
-86 730 0
-86 719 0
87 -86 -28 0
-87 86 0
-87 28 0
88 -731 -85 0
-88 731 0
-88 85 0
89 -29 -732 0
-89 29 0
-89 732 0
90 -89 -28 0
-90 89 0
-90 28 0
91 -733 -88 0
-91 733 0
-91 88 0
92 -23 -5 0
-92 23 0
-92 5 0
93 -92 -734 0
-93 92 0
-93 734 0
94 -735 -91 0
-94 735 0
-94 91 0
95 -736 -737 0
-95 736 0
-95 737 0
96 -95 -738 0
-96 95 0
-96 738 0
97 -739 -94 0
-97 739 0
-97 94 0
98 -740 -741 0
-98 740 0
-98 741 0
99 -98 -742 0
-99 98 0
-99 742 0
100 -743 -97 0
-100 743 0
-100 97 0
101 -744 -745 0
-101 744 0
-101 745 0
102 -101 -716 0
-102 101 0
-102 716 0
103 -746 -100 0
-103 746 0
-103 100 0
104 -37 -728 0
-104 37 0
-104 728 0
105 -104 -19 0
-105 104 0
-105 19 0
106 -747 -103 0
-106 747 0
-106 103 0
107 -748 -732 0
-107 748 0
-107 732 0
108 -107 -33 0
-108 107 0
-108 33 0
109 -749 -106 0
-109 749 0
-109 106 0
110 -745 -29 0
-110 745 0
-110 29 0
111 -110 -39 0
-111 110 0
-111 39 0
112 -750 -109 0
-112 750 0
-112 109 0
113 -745 -12 0
-113 745 0
-113 12 0
114 -113 -713 0
-114 113 0
-114 713 0
115 -751 -112 0
-115 751 0
-115 112 0
116 -752 -12 0
-116 752 0
-116 12 0
117 -116 -40 0
-117 116 0
-117 40 0
118 -753 -115 0
-118 753 0
-118 115 0
119 -754 -737 0
-119 754 0
-119 737 0
120 -119 -716 0
-120 119 0
-120 716 0
121 -755 -118 0
-121 755 0
-121 118 0
122 -35 -708 0
-122 35 0
-122 708 0
123 -122 -740 0
-123 122 0
-123 740 0
124 -756 -121 0
-124 756 0
-124 121 0
125 -732 -16 0
-125 732 0
-125 16 0
126 -125 -3 0
-126 125 0
-126 3 0
127 -757 -124 0
-127 757 0
-127 124 0
128 -758 -745 0
-128 758 0
-128 745 0
129 -128 -710 0
-129 128 0
-129 710 0
130 -759 -127 0
-130 759 0
-130 127 0
131 -26 -17 0
-131 26 0
-131 17 0
132 -131 -30 0
-132 131 0
-132 30 0
133 -760 -130 0
-133 760 0
-133 130 0
134 -42 -727 0
-134 42 0
-134 727 0
135 -134 -761 0
-135 134 0
-135 761 0
136 -762 -133 0
-136 762 0
-136 133 0
137 -44 -711 0
-137 44 0
-137 711 0
138 -137 -45 0
-138 137 0
-138 45 0
139 -763 -136 0
-139 763 0
-139 136 0
140 -758 -18 0
-140 758 0
-140 18 0
141 -140 -6 0
-141 140 0
-141 6 0
142 -764 -139 0
-142 764 0
-142 139 0
143 -758 -752 0
-143 758 0
-143 752 0
144 -143 -765 0
-144 143 0
-144 765 0
145 -766 -142 0
-145 766 0
-145 142 0
146 -737 -23 0
-146 737 0
-146 23 0
147 -146 -700 0
-147 146 0
-147 700 0
148 -767 -145 0
-148 767 0
-148 145 0
149 -24 -15 0
-149 24 0
-149 15 0
150 -149 -742 0
-150 149 0
-150 742 0
151 -768 -148 0
-151 768 0
-151 148 0
152 -46 -748 0
-152 46 0
-152 748 0
153 -152 -769 0
-153 152 0
-153 769 0
154 -770 -151 0
-154 770 0
-154 151 0
155 -45 -8 0
-155 45 0
-155 8 0
156 -155 -33 0
-156 155 0
-156 33 0
157 -771 -154 0
-157 771 0
-157 154 0
158 -772 -1 0
-158 772 0
-158 1 0
159 -158 -769 0
-159 158 0
-159 769 0
160 -773 -157 0
-160 773 0
-160 157 0
161 -46 -4 0
-161 46 0
-161 4 0
162 -161 -34 0
-162 161 0
-162 34 0
163 -774 -160 0
-163 774 0
-163 160 0
164 -38 -730 0
-164 38 0
-164 730 0
165 -164 -46 0
-165 164 0
-165 46 0
166 -775 -163 0
-166 775 0
-166 163 0
167 -33 -14 0
-167 33 0
-167 14 0
168 -167 -776 0
-168 167 0
-168 776 0
169 -777 -166 0
-169 777 0
-169 166 0
170 -736 -23 0
-170 736 0
-170 23 0
171 -170 -711 0
-171 170 0
-171 711 0
172 -778 -169 0
-172 778 0
-172 169 0
173 -727 -752 0
-173 727 0
-173 752 0
174 -173 -12 0
-174 173 0
-174 12 0
175 -779 -172 0
-175 779 0
-175 172 0
176 -46 -23 0
-176 46 0
-176 23 0
177 -176 -3 0
-177 176 0
-177 3 0
178 -780 -175 0
-178 780 0
-178 175 0
179 -758 -13 0
-179 758 0
-179 13 0
180 -179 -723 0
-180 179 0
-180 723 0
181 -781 -178 0
-181 781 0
-181 178 0
182 -26 -732 0
-182 26 0
-182 732 0
183 -182 -19 0
-183 182 0
-183 19 0
184 -782 -181 0
-184 782 0
-184 181 0
185 -730 -713 0
-185 730 0
-185 713 0
186 -185 -36 0
-186 185 0
-186 36 0
187 -783 -184 0
-187 783 0
-187 184 0
188 -784 -730 0
-188 784 0
-188 730 0
189 -188 -4 0
-189 188 0
-189 4 0
190 -785 -187 0
-190 785 0
-190 187 0
191 -786 -723 0
-191 786 0
-191 723 0
192 -191 -48 0
-192 191 0
-192 48 0
193 -787 -190 0
-193 787 0
-193 190 0
194 -39 -788 0
-194 39 0
-194 788 0
195 -194 -776 0
-195 194 0
-195 776 0
196 -789 -193 0
-196 789 0
-196 193 0
197 -790 -791 0
-197 790 0
-197 791 0
198 -197 -47 0
-198 197 0
-198 47 0
199 -792 -196 0
-199 792 0
-199 196 0
200 -36 -728 0
-200 36 0
-200 728 0
201 -200 -748 0
-201 200 0
-201 748 0
202 -793 -199 0
-202 793 0
-202 199 0
203 -758 -726 0
-203 758 0
-203 726 0
204 -203 -36 0
-204 203 0
-204 36 0
205 -794 -202 0
-205 794 0
-205 202 0
206 -710 -14 0
-206 710 0
-206 14 0
207 -206 -772 0
-207 206 0
-207 772 0
208 -795 -205 0
-208 795 0
-208 205 0
209 -796 -15 0
-209 796 0
-209 15 0
210 -209 -46 0
-210 209 0
-210 46 0
211 -797 -208 0
-211 797 0
-211 208 0
212 -710 -9 0
-212 710 0
-212 9 0
213 -212 -798 0
-213 212 0
-213 798 0
214 -799 -211 0
-214 799 0
-214 211 0
215 -41 -727 0
-215 41 0
-215 727 0
216 -215 -17 0
-216 215 0
-216 17 0
217 -800 -214 0
-217 800 0
-217 214 0
218 -718 -741 0
-218 718 0
-218 741 0
219 -218 -19 0
-219 218 0
-219 19 0
220 -801 -217 0
-220 801 0
-220 217 0
221 -38 -704 0
-221 38 0
-221 704 0
222 -221 -734 0
-222 221 0
-222 734 0
223 -802 -220 0
-223 802 0
-223 220 0
224 -748 -7 0
-224 748 0
-224 7 0
225 -224 -6 0
-225 224 0
-225 6 0
226 -803 -223 0
-226 803 0
-226 223 0
227 -741 -5 0
-227 741 0
-227 5 0
228 -227 -715 0
-228 227 0
-228 715 0
229 -804 -226 0
-229 804 0
-229 226 0
230 -805 -710 0
-230 805 0
-230 710 0
231 -230 -11 0
-231 230 0
-231 11 0
232 -806 -229 0
-232 806 0
-232 229 0
233 -20 -7 0
-233 20 0
-233 7 0
234 -233 -701 0
-234 233 0
-234 701 0
235 -807 -232 0
-235 807 0
-235 232 0
236 -758 -706 0
-236 758 0
-236 706 0
237 -236 -22 0
-237 236 0
-237 22 0
238 -808 -235 0
-238 808 0
-238 235 0
239 -796 -720 0
-239 796 0
-239 720 0
240 -239 -761 0
-240 239 0
-240 761 0
241 -809 -238 0
-241 809 0
-241 238 0
242 -37 -708 0
-242 37 0
-242 708 0
243 -242 -32 0
-243 242 0
-243 32 0
244 -810 -241 0
-244 810 0
-244 241 0
245 -730 -732 0
-245 730 0
-245 732 0
246 -245 -811 0
-246 245 0
-246 811 0
247 -812 -244 0
-247 812 0
-247 244 0
248 -708 -1 0
-248 708 0
-248 1 0
249 -248 -737 0
-249 248 0
-249 737 0
250 -813 -247 0
-250 813 0
-250 247 0
251 -741 -1 0
-251 741 0
-251 1 0
252 -251 -36 0
-252 251 0
-252 36 0
253 -814 -250 0
-253 814 0
-253 250 0
254 -42 -16 0
-254 42 0
-254 16 0
255 -254 -720 0
-255 254 0
-255 720 0
256 -815 -253 0
-256 815 0
-256 253 0
257 -25 -816 0
-257 25 0
-257 816 0
258 -257 -701 0
-258 257 0
-258 701 0
259 -817 -256 0
-259 817 0
-259 256 0
260 -35 -752 0
-260 35 0
-260 752 0
261 -260 -798 0
-261 260 0
-261 798 0
262 -818 -259 0
-262 818 0
-262 259 0
263 -48 -738 0
-263 48 0
-263 738 0
264 -263 -798 0
-264 263 0
-264 798 0
265 -819 -262 0
-265 819 0
-265 262 0
266 -48 -786 0
-266 48 0
-266 786 0
267 -266 -769 0
-267 266 0
-267 769 0
268 -820 -265 0
-268 820 0
-268 265 0
269 -48 -737 0
-269 48 0
-269 737 0
270 -269 -811 0
-270 269 0
-270 811 0
271 -821 -268 0
-271 821 0
-271 268 0
272 -704 -2 0
-272 704 0
-272 2 0
273 -272 -754 0
-273 272 0
-273 754 0
274 -822 -271 0
-274 822 0
-274 271 0
275 -7 -2 0
-275 7 0
-275 2 0
276 -275 -796 0
-276 275 0
-276 796 0
277 -823 -274 0
-277 823 0
-277 274 0
278 -42 -732 0
-278 42 0
-278 732 0
279 -278 -720 0
-279 278 0
-279 720 0
280 -824 -277 0
-280 824 0
-280 277 0
281 -35 -18 0
-281 35 0
-281 18 0
282 -281 -718 0
-282 281 0
-282 718 0
283 -825 -280 0
-283 825 0
-283 280 0
284 -49 -816 0
-284 49 0
-284 816 0
285 -284 -772 0
-285 284 0
-285 772 0
286 -826 -283 0
-286 826 0
-286 283 0
287 -754 -31 0
-287 754 0
-287 31 0
288 -287 -811 0
-288 287 0
-288 811 0
289 -827 -286 0
-289 827 0
-289 286 0
290 -796 -744 0
-290 796 0
-290 744 0
291 -290 -3 0
-291 290 0
-291 3 0
292 -828 -289 0
-292 828 0
-292 289 0
293 -790 -17 0
-293 790 0
-293 17 0
294 -293 -1 0
-294 293 0
-294 1 0
295 -829 -292 0
-295 829 0
-295 292 0
296 -796 -788 0
-296 796 0
-296 788 0
297 -296 -6 0
-297 296 0
-297 6 0
298 -830 -295 0
-298 830 0
-298 295 0
299 -49 -8 0
-299 49 0
-299 8 0
300 -299 -742 0
-300 299 0
-300 742 0
301 -831 -298 0
-301 831 0
-301 298 0
302 -36 -30 0
-302 36 0
-302 30 0
303 -302 -50 0
-303 302 0
-303 50 0
304 -832 -301 0
-304 832 0
-304 301 0
305 -39 -720 0
-305 39 0
-305 720 0
306 -305 -740 0
-306 305 0
-306 740 0
307 -833 -304 0
-307 833 0
-307 304 0
308 -17 -720 0
-308 17 0
-308 720 0
309 -308 -33 0
-309 308 0
-309 33 0
310 -834 -307 0
-310 834 0
-310 307 0
311 -8 -6 0
-311 8 0
-311 6 0
312 -311 -776 0
-312 311 0
-312 776 0
313 -835 -310 0
-313 835 0
-313 310 0
314 -43 -723 0
-314 43 0
-314 723 0
315 -314 -716 0
-315 314 0
-315 716 0
316 -836 -313 0
-316 836 0
-316 313 0
317 -790 -10 0
-317 790 0
-317 10 0
318 -317 -34 0
-318 317 0
-318 34 0
319 -837 -316 0
-319 837 0
-319 316 0
320 -790 -713 0
-320 790 0
-320 713 0
321 -320 -27 0
-321 320 0
-321 27 0
322 -838 -319 0
-322 838 0
-322 319 0
323 -723 -1 0
-323 723 0
-323 1 0
324 -323 -38 0
-324 323 0
-324 38 0
325 -839 -322 0
-325 839 0
-325 322 0
326 -179 -741 0
-326 179 0
-326 741 0
327 -840 -325 0
-327 840 0
-327 325 0
328 -737 -10 0
-328 737 0
-328 10 0
329 -328 -744 0
-329 328 0
-329 744 0
330 -841 -327 0
-330 841 0
-330 327 0
331 -790 -708 0
-331 790 0
-331 708 0
332 -331 -43 0
-332 331 0
-332 43 0
333 -842 -330 0
-333 842 0
-333 330 0
334 -752 -2 0
-334 752 0
-334 2 0
335 -334 -811 0
-335 334 0
-335 811 0
336 -843 -333 0
-336 843 0
-336 333 0
337 -704 -1 0
-337 704 0
-337 1 0
338 -337 -726 0
-338 337 0
-338 726 0
339 -844 -336 0
-339 844 0
-339 336 0
340 -16 -722 0
-340 16 0
-340 722 0
341 -340 -39 0
-341 340 0
-341 39 0
342 -845 -339 0
-342 845 0
-342 339 0
343 -736 -5 0
-343 736 0
-343 5 0
344 -343 -761 0
-344 343 0
-344 761 0
345 -846 -342 0
-345 846 0
-345 342 0
346 -732 -10 0
-346 732 0
-346 10 0
347 -346 -7 0
-347 346 0
-347 7 0
348 -847 -345 0
-348 847 0
-348 345 0
349 -320 -36 0
-349 320 0
-349 36 0
350 -848 -348 0
-350 848 0
-350 348 0
351 -791 -11 0
-351 791 0
-351 11 0
352 -351 -798 0
-352 351 0
-352 798 0
353 -849 -350 0
-353 849 0
-353 350 0
354 -41 -32 0
-354 41 0
-354 32 0
355 -354 -716 0
-355 354 0
-355 716 0
356 -850 -353 0
-356 850 0
-356 353 0
357 -748 -713 0
-357 748 0
-357 713 0
358 -357 -740 0
-358 357 0
-358 740 0
359 -851 -356 0
-359 851 0
-359 356 0
360 -727 -816 0
-360 727 0
-360 816 0
361 -360 -788 0
-361 360 0
-361 788 0
362 -852 -359 0
-362 852 0
-362 359 0
363 -49 -716 0
-363 49 0
-363 716 0
364 -363 -47 0
-364 363 0
-364 47 0
365 -853 -362 0
-365 853 0
-365 362 0
366 -36 -719 0
-366 36 0
-366 719 0
367 -366 -45 0
-367 366 0
-367 45 0
368 -854 -365 0
-368 854 0
-368 365 0
369 -185 -40 0
-369 185 0
-369 40 0
370 -855 -368 0
-370 855 0
-370 368 0
371 -784 -713 0
-371 784 0
-371 713 0
372 -371 -769 0
-372 371 0
-372 769 0
373 -856 -370 0
-373 856 0
-373 370 0
374 -36 -29 0
-374 36 0
-374 29 0
375 -374 -738 0
-375 374 0
-375 738 0
376 -857 -373 0
-376 857 0
-376 373 0
377 -48 -736 0
-377 48 0
-377 736 0
378 -377 -776 0
-378 377 0
-378 776 0
379 -858 -376 0
-379 858 0
-379 376 0
380 -784 -710 0
-380 784 0
-380 710 0
381 -380 -788 0
-381 380 0
-381 788 0
382 -859 -379 0
-382 859 0
-382 379 0
383 -39 -16 0
-383 39 0
-383 16 0
384 -383 -3 0
-384 383 0
-384 3 0
385 -860 -382 0
-385 860 0
-385 382 0
386 -42 -31 0
-386 42 0
-386 31 0
387 -386 -5 0
-387 386 0
-387 5 0
388 -861 -385 0
-388 861 0
-388 385 0
389 -31 -719 0
-389 31 0
-389 719 0
390 -389 -45 0
-390 389 0
-390 45 0
391 -862 -388 0
-391 862 0
-391 388 0
392 -21 -14 0
-392 21 0
-392 14 0
393 -392 -40 0
-393 392 0
-393 40 0
394 -863 -391 0
-394 863 0
-394 391 0
395 -33 -701 0
-395 33 0
-395 701 0
396 -395 -19 0
-396 395 0
-396 19 0
397 -864 -394 0
-397 864 0
-397 394 0
398 -14 -700 0
-398 14 0
-398 700 0
399 -398 -34 0
-399 398 0
-399 34 0
400 -865 -397 0
-400 865 0
-400 397 0
401 -745 -728 0
-401 745 0
-401 728 0
402 -401 -811 0
-402 401 0
-402 811 0
403 -866 -400 0
-403 866 0
-403 400 0
404 -867 -17 0
-404 867 0
-404 17 0
405 -404 -6 0
-405 404 0
-405 6 0
406 -868 -403 0
-406 868 0
-406 403 0
407 -31 -12 0
-407 31 0
-407 12 0
408 -407 -7 0
-408 407 0
-408 7 0
409 -869 -406 0
-409 869 0
-409 406 0
410 -816 -5 0
-410 816 0
-410 5 0
411 -410 -40 0
-411 410 0
-411 40 0
412 -870 -409 0
-412 870 0
-412 409 0
413 -44 -21 0
-413 44 0
-413 21 0
414 -413 -704 0
-414 413 0
-414 704 0
415 -871 -412 0
-415 871 0
-415 412 0
416 -37 -737 0
-416 37 0
-416 737 0
417 -416 -769 0
-417 416 0
-417 769 0
418 -872 -415 0
-418 872 0
-418 415 0
419 -27 -21 0
-419 27 0
-419 21 0
420 -419 -786 0
-420 419 0
-420 786 0
421 -873 -418 0
-421 873 0
-421 418 0
422 -40 -719 0
-422 40 0
-422 719 0
423 -422 -50 0
-423 422 0
-423 50 0
424 -874 -421 0
-424 874 0
-424 421 0
425 -738 -25 0
-425 738 0
-425 25 0
426 -425 -742 0
-426 425 0
-426 742 0
427 -875 -424 0
-427 875 0
-427 424 0
428 -29 -14 0
-428 29 0
-428 14 0
429 -428 -43 0
-429 428 0
-429 43 0
430 -876 -427 0
-430 876 0
-430 427 0
431 -49 -737 0
-431 49 0
-431 737 0
432 -431 -811 0
-432 431 0
-432 811 0
433 -877 -430 0
-433 877 0
-433 430 0
434 -742 -20 0
-434 742 0
-434 20 0
435 -434 -3 0
-435 434 0
-435 3 0
436 -878 -433 0
-436 878 0
-436 433 0
437 -35 -879 0
-437 35 0
-437 879 0
438 -437 -9 0
-438 437 0
-438 9 0
439 -880 -436 0
-439 880 0
-439 436 0
440 -758 -39 0
-440 758 0
-440 39 0
441 -440 -9 0
-441 440 0
-441 9 0
442 -881 -439 0
-442 881 0
-442 439 0
443 -41 -4 0
-443 41 0
-443 4 0
444 -443 -38 0
-444 443 0
-444 38 0
445 -882 -442 0
-445 882 0
-445 442 0
446 -11 -8 0
-446 11 0
-446 8 0
447 -446 -50 0
-447 446 0
-447 50 0
448 -883 -445 0
-448 883 0
-448 445 0
449 -744 -738 0
-449 744 0
-449 738 0
450 -449 -701 0
-450 449 0
-450 701 0
451 -884 -448 0
-451 884 0
-451 448 0
452 -43 -42 0
-452 43 0
-452 42 0
453 -452 -742 0
-453 452 0
-453 742 0
454 -885 -451 0
-454 885 0
-454 451 0
455 -790 -732 0
-455 790 0
-455 732 0
456 -455 -754 0
-456 455 0
-456 754 0
457 -886 -454 0
-457 886 0
-457 454 0
458 -761 -816 0
-458 761 0
-458 816 0
459 -458 -33 0
-459 458 0
-459 33 0
460 -887 -457 0
-460 887 0
-460 457 0
461 -17 -12 0
-461 17 0
-461 12 0
462 -461 -786 0
-462 461 0
-462 786 0
463 -888 -460 0
-463 888 0
-463 460 0
464 -790 -12 0
-464 790 0
-464 12 0
465 -464 -39 0
-465 464 0
-465 39 0
466 -889 -463 0
-466 889 0
-466 463 0
467 -727 -711 0
-467 727 0
-467 711 0
468 -467 -744 0
-468 467 0
-468 744 0
469 -890 -466 0
-469 890 0
-469 466 0
470 -39 -23 0
-470 39 0
-470 23 0
471 -470 -46 0
-471 470 0
-471 46 0
472 -891 -469 0
-472 891 0
-472 469 0
473 -784 -5 0
-473 784 0
-473 5 0
474 -473 -742 0
-474 473 0
-474 742 0
475 -892 -472 0
-475 892 0
-475 472 0
476 -35 -736 0
-476 35 0
-476 736 0
477 -476 -723 0
-477 476 0
-477 723 0
478 -893 -475 0
-478 893 0
-478 475 0
479 -36 -4 0
-479 36 0
-479 4 0
480 -479 -738 0
-480 479 0
-480 738 0
481 -894 -478 0
-481 894 0
-481 478 0
482 -718 -701 0
-482 718 0
-482 701 0
483 -482 -772 0
-483 482 0
-483 772 0
484 -895 -481 0
-484 895 0
-484 481 0
485 -44 -12 0
-485 44 0
-485 12 0
486 -485 -43 0
-486 485 0
-486 43 0
487 -896 -484 0
-487 896 0
-487 484 0
488 -736 -27 0
-488 736 0
-488 27 0
489 -488 -46 0
-489 488 0
-489 46 0
490 -897 -487 0
-490 897 0
-490 487 0
491 -736 -22 0
-491 736 0
-491 22 0
492 -491 -2 0
-492 491 0
-492 2 0
493 -898 -490 0
-493 898 0
-493 490 0
494 -18 -14 0
-494 18 0
-494 14 0
495 -494 -47 0
-495 494 0
-495 47 0
496 -899 -493 0
-496 899 0
-496 493 0
497 -35 -10 0
-497 35 0
-497 10 0
498 -497 -28 0
-498 497 0
-498 28 0
499 -900 -496 0
-499 900 0
-499 496 0
500 -46 -42 0
-500 46 0
-500 42 0
501 -500 -45 0
-501 500 0
-501 45 0
502 -901 -499 0
-502 901 0
-502 499 0
503 -790 -816 0
-503 790 0
-503 816 0
504 -503 -26 0
-504 503 0
-504 26 0
505 -902 -502 0
-505 902 0
-505 502 0
506 -49 -15 0
-506 49 0
-506 15 0
507 -506 -772 0
-507 506 0
-507 772 0
508 -903 -505 0
-508 903 0
-508 505 0
509 -31 -723 0
-509 31 0
-509 723 0
510 -509 -761 0
-510 509 0
-510 761 0
511 -904 -508 0
-511 904 0
-511 508 0
512 -805 -741 0
-512 805 0
-512 741 0
513 -512 -3 0
-513 512 0
-513 3 0
514 -905 -511 0
-514 905 0
-514 511 0
515 -737 -713 0
-515 737 0
-515 713 0
516 -515 -34 0
-516 515 0
-516 34 0
517 -906 -514 0
-517 906 0
-517 514 0
518 -21 -700 0
-518 21 0
-518 700 0
519 -518 -43 0
-519 518 0
-519 43 0
520 -907 -517 0
-520 907 0
-520 517 0
521 -740 -715 0
-521 740 0
-521 715 0
522 -521 -742 0
-522 521 0
-522 742 0
523 -908 -520 0
-523 908 0
-523 520 0
524 -796 -718 0
-524 796 0
-524 718 0
525 -524 -38 0
-525 524 0
-525 38 0
526 -909 -523 0
-526 909 0
-526 523 0
527 -784 -704 0
-527 784 0
-527 704 0
528 -527 -786 0
-528 527 0
-528 786 0
529 -910 -526 0
-529 910 0
-529 526 0
530 -40 -15 0
-530 40 0
-530 15 0
531 -530 -47 0
-531 530 0
-531 47 0
532 -911 -529 0
-532 911 0
-532 529 0
533 -10 -701 0
-533 10 0
-533 701 0
534 -533 -734 0
-534 533 0
-534 734 0
535 -912 -532 0
-535 912 0
-535 532 0
536 -31 -704 0
-536 31 0
-536 704 0
537 -536 -27 0
-537 536 0
-537 27 0
538 -913 -535 0
-538 913 0
-538 535 0
539 -791 -29 0
-539 791 0
-539 29 0
540 -539 -744 0
-540 539 0
-540 744 0
541 -914 -538 0
-541 914 0
-541 538 0
542 -713 -14 0
-542 713 0
-542 14 0
543 -542 -728 0
-543 542 0
-543 728 0
544 -915 -541 0
-544 915 0
-544 541 0
545 -20 -14 0
-545 20 0
-545 14 0
546 -545 -47 0
-546 545 0
-546 47 0
547 -916 -544 0
-547 916 0
-547 544 0
548 -728 -21 0
-548 728 0
-548 21 0
549 -548 -19 0
-549 548 0
-549 19 0
550 -917 -547 0
-550 917 0
-550 547 0
551 -736 -15 0
-551 736 0
-551 15 0
552 -551 -39 0
-552 551 0
-552 39 0
553 -918 -550 0
-553 918 0
-553 550 0
554 -20 -710 0
-554 20 0
-554 710 0
555 -554 -728 0
-555 554 0
-555 728 0
556 -919 -553 0
-556 919 0
-556 553 0
557 -745 -752 0
-557 745 0
-557 752 0
558 -557 -7 0
-558 557 0
-558 7 0
559 -920 -556 0
-559 920 0
-559 556 0
560 -788 -6 0
-560 788 0
-560 6 0
561 -560 -48 0
-561 560 0
-561 48 0
562 -921 -559 0
-562 921 0
-562 559 0
563 -786 -752 0
-563 786 0
-563 752 0
564 -563 -6 0
-564 563 0
-564 6 0
565 -922 -562 0
-565 922 0
-565 562 0
566 -788 -816 0
-566 788 0
-566 816 0
567 -566 -26 0
-567 566 0
-567 26 0
568 -923 -565 0
-568 923 0
-568 565 0
569 -24 -719 0
-569 24 0
-569 719 0
570 -569 -19 0
-570 569 0
-570 19 0
571 -924 -568 0
-571 924 0
-571 568 0
572 -21 -719 0
-572 21 0
-572 719 0
573 -572 -38 0
-573 572 0
-573 38 0
574 -925 -571 0
-574 925 0
-574 571 0
575 -728 -719 0
-575 728 0
-575 719 0
576 -575 -776 0
-576 575 0
-576 776 0
577 -926 -574 0
-577 926 0
-577 574 0
578 -726 -25 0
-578 726 0
-578 25 0
579 -578 -769 0
-579 578 0
-579 769 0
580 -927 -577 0
-580 927 0
-580 577 0
581 -16 -11 0
-581 16 0
-581 11 0
582 -581 -45 0
-582 581 0
-582 45 0
583 -928 -580 0
-583 928 0
-583 580 0
584 -35 -26 0
-584 35 0
-584 26 0
585 -584 -734 0
-585 584 0
-585 734 0
586 -929 -583 0
-586 929 0
-586 583 0
587 -791 -24 0
-587 791 0
-587 24 0
588 -587 -6 0
-588 587 0
-588 6 0
589 -930 -586 0
-589 930 0
-589 586 0
590 -31 -26 0
-590 31 0
-590 26 0
591 -590 -742 0
-591 590 0
-591 742 0
592 -931 -589 0
-592 931 0
-592 589 0
593 -43 -740 0
-593 43 0
-593 740 0
594 -593 -776 0
-594 593 0
-594 776 0
595 -932 -592 0
-595 932 0
-595 592 0
596 -20 -18 0
-596 20 0
-596 18 0
597 -596 -704 0
-597 596 0
-597 704 0
598 -933 -595 0
-598 933 0
-598 595 0
599 -49 -22 0
-599 49 0
-599 22 0
600 -599 -2 0
-600 599 0
-600 2 0
601 -934 -598 0
-601 934 0
-601 598 0
602 -745 -32 0
-602 745 0
-602 32 0
603 -602 -46 0
-603 602 0
-603 46 0
604 -935 -601 0
-604 935 0
-604 601 0
605 -194 -740 0
-605 194 0
-605 740 0
606 -936 -604 0
-606 936 0
-606 604 0
607 -33 -722 0
-607 33 0
-607 722 0
608 -607 -716 0
-608 607 0
-608 716 0
609 -937 -606 0
-609 937 0
-609 606 0
610 -8 -879 0
-610 8 0
-610 879 0
611 -610 -33 0
-611 610 0
-611 33 0
612 -938 -609 0
-612 938 0
-612 609 0
613 -765 -713 0
-613 765 0
-613 713 0
614 -613 -6 0
-614 613 0
-614 6 0
615 -939 -612 0
-615 939 0
-615 612 0
616 -43 -706 0
-616 43 0
-616 706 0
617 -616 -34 0
-617 616 0
-617 34 0
618 -940 -615 0
-618 940 0
-618 615 0
619 -17 -10 0
-619 17 0
-619 10 0
620 -619 -741 0
-620 619 0
-620 741 0
621 -941 -618 0
-621 941 0
-621 618 0
622 -44 -41 0
-622 44 0
-622 41 0
623 -622 -45 0
-623 622 0
-623 45 0
624 -942 -621 0
-624 942 0
-624 621 0
625 -788 -732 0
-625 788 0
-625 732 0
626 -625 -43 0
-626 625 0
-626 43 0
627 -943 -624 0
-627 943 0
-627 624 0
628 -35 -8 0
-628 35 0
-628 8 0
629 -628 -32 0
-629 628 0
-629 32 0
630 -944 -627 0
-630 944 0
-630 627 0
631 -37 -744 0
-631 37 0
-631 744 0
632 -631 -6 0
-632 631 0
-632 6 0
633 -945 -630 0
-633 945 0
-633 630 0
634 -765 -8 0
-634 765 0
-634 8 0
635 -634 -740 0
-635 634 0
-635 740 0
636 -946 -633 0
-636 946 0
-636 633 0
637 -737 -8 0
-637 737 0
-637 8 0
638 -637 -769 0
-638 637 0
-638 769 0
639 -947 -636 0
-639 947 0
-639 636 0
640 -745 -708 0
-640 745 0
-640 708 0
641 -640 -31 0
-641 640 0
-641 31 0
642 -948 -639 0
-642 948 0
-642 639 0
643 -704 -720 0
-643 704 0
-643 720 0
644 -643 -34 0
-644 643 0
-644 34 0
645 -949 -642 0
-645 949 0
-645 642 0
646 -790 -730 0
-646 790 0
-646 730 0
647 -646 -50 0
-647 646 0
-647 50 0
648 -950 -645 0
-648 950 0
-648 645 0
649 -22 -710 0
-649 22 0
-649 710 0
650 -649 -728 0
-650 649 0
-650 728 0
651 -951 -648 0
-651 951 0
-651 648 0
652 -20 -722 0
-652 20 0
-652 722 0
653 -652 -740 0
-653 652 0
-653 740 0
654 -952 -651 0
-654 952 0
-654 651 0
655 -49 -2 0
-655 49 0
-655 2 0
656 -655 -33 0
-656 655 0
-656 33 0
657 -953 -654 0
-657 953 0
-657 654 0
658 -22 -14 0
-658 22 0
-658 14 0
659 -658 -715 0
-659 658 0
-659 715 0
660 -954 -657 0
-660 954 0
-660 657 0
661 -796 -6 0
-661 796 0
-661 6 0
662 -661 -742 0
-662 661 0
-662 742 0
663 -955 -660 0
-663 955 0
-663 660 0
664 -7 -700 0
-664 7 0
-664 700 0
665 -664 -744 0
-665 664 0
-665 744 0
666 -956 -663 0
-666 956 0
-666 663 0
667 -754 -727 0
-667 754 0
-667 727 0
668 -667 -742 0
-668 667 0
-668 742 0
669 -957 -666 0
-669 957 0
-669 666 0
670 -867 -23 0
-670 867 0
-670 23 0
671 -670 -45 0
-671 670 0
-671 45 0
672 -958 -669 0
-672 958 0
-672 669 0
673 -44 -15 0
-673 44 0
-673 15 0
674 -673 -28 0
-674 673 0
-674 28 0
675 -959 -672 0
-675 959 0
-675 672 0
676 -805 -27 0
-676 805 0
-676 27 0
677 -676 -33 0
-677 676 0
-677 33 0
678 -960 -675 0
-678 960 0
-678 675 0
679 -39 -14 0
-679 39 0
-679 14 0
680 -679 -34 0
-680 679 0
-680 34 0
681 -961 -678 0
-681 961 0
-681 678 0
682 -7 -1 0
-682 7 0
-682 1 0
683 -682 -772 0
-683 682 0
-683 772 0
684 -962 -681 0
-684 962 0
-684 681 0
685 -42 -758 0
-685 42 0
-685 758 0
686 -685 -39 0
-686 685 0
-686 39 0
687 -963 -684 0
-687 963 0
-687 684 0
688 -788 -18 0
-688 788 0
-688 18 0
689 -688 -742 0
-689 688 0
-689 742 0
690 -964 -687 0
-690 964 0
-690 687 0
691 -745 -719 0
-691 745 0
-691 719 0
692 -691 -811 0
-692 691 0
-692 811 0
693 -965 -690 0
-693 965 0
-693 690 0
694 -18 -711 0
-694 18 0
-694 711 0
695 -694 -748 0
-695 694 0
-695 748 0
696 -966 -693 0
-696 966 0
-696 693 0
697 -46 -786 0
-697 46 0
-697 786 0
698 -697 -6 0
-698 697 0
-698 6 0
699 -967 -696 0
-699 967 0
-699 696 0
-700 -5 0
700 5 0
-701 -6 0
701 6 0
-702 -54 0
702 54 0
-703 -52 0
703 52 0
-704 -8 0
704 8 0
-705 -57 0
705 57 0
-706 -10 0
706 10 0
-707 -60 0
707 60 0
-708 -12 0
708 12 0
-709 -63 0
709 63 0
-710 -16 0
710 16 0
-711 -1 0
711 1 0
-712 -66 0
712 66 0
-713 -17 0
713 17 0
-714 -69 0
714 69 0
-715 -9 0
715 9 0
-716 -19 0
716 19 0
-717 -72 0
717 72 0
-718 -20 0
718 20 0
-719 -13 0
719 13 0
-720 -4 0
720 4 0
-721 -75 0
721 75 0
-722 -11 0
722 11 0
-723 -22 0
723 22 0
-724 -78 0
724 78 0
-725 -81 0
725 81 0
-726 -26 0
726 26 0
-727 -25 0
727 25 0
-728 -27 0
728 27 0
-729 -84 0
729 84 0
-730 -23 0
730 23 0
-731 -87 0
731 87 0
-732 -18 0
732 18 0
-733 -90 0
733 90 0
-734 -30 0
734 30 0
-735 -93 0
735 93 0
-736 -31 0
736 31 0
-737 -28 0
737 28 0
-738 -32 0
738 32 0
-739 -96 0
739 96 0
-740 -33 0
740 33 0
-741 -14 0
741 14 0
-742 -34 0
742 34 0
-743 -99 0
743 99 0
-744 -36 0
744 36 0
-745 -35 0
745 35 0
-746 -102 0
746 102 0
-747 -105 0
747 105 0
-748 -38 0
748 38 0
-749 -108 0
749 108 0
-750 -111 0
750 111 0
-751 -114 0
751 114 0
-752 -15 0
752 15 0
-753 -117 0
753 117 0
-754 -39 0
754 39 0
-755 -120 0
755 120 0
-756 -123 0
756 123 0
-757 -126 0
757 126 0
-758 -41 0
758 41 0
-759 -129 0
759 129 0
-760 -132 0
760 132 0
-761 -43 0
761 43 0
-762 -135 0
762 135 0
-763 -138 0
763 138 0
-764 -141 0
764 141 0
-765 -24 0
765 24 0
-766 -144 0
766 144 0
-767 -147 0
767 147 0
-768 -150 0
768 150 0
-769 -47 0
769 47 0
-770 -153 0
770 153 0
-771 -156 0
771 156 0
-772 -48 0
772 48 0
-773 -159 0
773 159 0
-774 -162 0
774 162 0
-775 -165 0
775 165 0
-776 -3 0
776 3 0
-777 -168 0
777 168 0
-778 -171 0
778 171 0
-779 -174 0
779 174 0
-780 -177 0
780 177 0
-781 -180 0
781 180 0
-782 -183 0
782 183 0
-783 -186 0
783 186 0
-784 -44 0
784 44 0
-785 -189 0
785 189 0
-786 -37 0
786 37 0
-787 -192 0
787 192 0
-788 -21 0
788 21 0
-789 -195 0
789 195 0
-790 -49 0
790 49 0
-791 -42 0
791 42 0
-792 -198 0
792 198 0
-793 -201 0
793 201 0
-794 -204 0
794 204 0
-795 -207 0
795 207 0
-796 -40 0
796 40 0
-797 -210 0
797 210 0
-798 -50 0
798 50 0
-799 -213 0
799 213 0
-800 -216 0
800 216 0
-801 -219 0
801 219 0
-802 -222 0
802 222 0
-803 -225 0
803 225 0
-804 -228 0
804 228 0
-805 -29 0
805 29 0
-806 -231 0
806 231 0
-807 -234 0
807 234 0
-808 -237 0
808 237 0
-809 -240 0
809 240 0
-810 -243 0
810 243 0
-811 -45 0
811 45 0
-812 -246 0
812 246 0
-813 -249 0
813 249 0
-814 -252 0
814 252 0
-815 -255 0
815 255 0
-816 -7 0
816 7 0
-817 -258 0
817 258 0
-818 -261 0
818 261 0
-819 -264 0
819 264 0
-820 -267 0
820 267 0
-821 -270 0
821 270 0
-822 -273 0
822 273 0
-823 -276 0
823 276 0
-824 -279 0
824 279 0
-825 -282 0
825 282 0
-826 -285 0
826 285 0
-827 -288 0
827 288 0
-828 -291 0
828 291 0
-829 -294 0
829 294 0
-830 -297 0
830 297 0
-831 -300 0
831 300 0
-832 -303 0
832 303 0
-833 -306 0
833 306 0
-834 -309 0
834 309 0
-835 -312 0
835 312 0
-836 -315 0
836 315 0
-837 -318 0
837 318 0
-838 -321 0
838 321 0
-839 -324 0
839 324 0
-840 -326 0
840 326 0
-841 -329 0
841 329 0
-842 -332 0
842 332 0
-843 -335 0
843 335 0
-844 -338 0
844 338 0
-845 -341 0
845 341 0
-846 -344 0
846 344 0
-847 -347 0
847 347 0
-848 -349 0
848 349 0
-849 -352 0
849 352 0
-850 -355 0
850 355 0
-851 -358 0
851 358 0
-852 -361 0
852 361 0
-853 -364 0
853 364 0
-854 -367 0
854 367 0
-855 -369 0
855 369 0
-856 -372 0
856 372 0
-857 -375 0
857 375 0
-858 -378 0
858 378 0
-859 -381 0
859 381 0
-860 -384 0
860 384 0
-861 -387 0
861 387 0
-862 -390 0
862 390 0
-863 -393 0
863 393 0
-864 -396 0
864 396 0
-865 -399 0
865 399 0
-866 -402 0
866 402 0
-867 -46 0
867 46 0
-868 -405 0
868 405 0
-869 -408 0
869 408 0
-870 -411 0
870 411 0
-871 -414 0
871 414 0
-872 -417 0
872 417 0
-873 -420 0
873 420 0
-874 -423 0
874 423 0
-875 -426 0
875 426 0
-876 -429 0
876 429 0
-877 -432 0
877 432 0
-878 -435 0
878 435 0
-879 -2 0
879 2 0
-880 -438 0
880 438 0
-881 -441 0
881 441 0
-882 -444 0
882 444 0
-883 -447 0
883 447 0
-884 -450 0
884 450 0
-885 -453 0
885 453 0
-886 -456 0
886 456 0
-887 -459 0
887 459 0
-888 -462 0
888 462 0
-889 -465 0
889 465 0
-890 -468 0
890 468 0
-891 -471 0
891 471 0
-892 -474 0
892 474 0
-893 -477 0
893 477 0
-894 -480 0
894 480 0
-895 -483 0
895 483 0
-896 -486 0
896 486 0
-897 -489 0
897 489 0
-898 -492 0
898 492 0
-899 -495 0
899 495 0
-900 -498 0
900 498 0
-901 -501 0
901 501 0
-902 -504 0
902 504 0
-903 -507 0
903 507 0
-904 -510 0
904 510 0
-905 -513 0
905 513 0
-906 -516 0
906 516 0
-907 -519 0
907 519 0
-908 -522 0
908 522 0
-909 -525 0
909 525 0
-910 -528 0
910 528 0
-911 -531 0
911 531 0
-912 -534 0
912 534 0
-913 -537 0
913 537 0
-914 -540 0
914 540 0
-915 -543 0
915 543 0
-916 -546 0
916 546 0
-917 -549 0
917 549 0
-918 -552 0
918 552 0
-919 -555 0
919 555 0
-920 -558 0
920 558 0
-921 -561 0
921 561 0
-922 -564 0
922 564 0
-923 -567 0
923 567 0
-924 -570 0
924 570 0
-925 -573 0
925 573 0
-926 -576 0
926 576 0
-927 -579 0
927 579 0
-928 -582 0
928 582 0
-929 -585 0
929 585 0
-930 -588 0
930 588 0
-931 -591 0
931 591 0
-932 -594 0
932 594 0
-933 -597 0
933 597 0
-934 -600 0
934 600 0
-935 -603 0
935 603 0
-936 -605 0
936 605 0
-937 -608 0
937 608 0
-938 -611 0
938 611 0
-939 -614 0
939 614 0
-940 -617 0
940 617 0
-941 -620 0
941 620 0
-942 -623 0
942 623 0
-943 -626 0
943 626 0
-944 -629 0
944 629 0
-945 -632 0
945 632 0
-946 -635 0
946 635 0
-947 -638 0
947 638 0
-948 -641 0
948 641 0
-949 -644 0
949 644 0
-950 -647 0
950 647 0
-951 -650 0
951 650 0
-952 -653 0
952 653 0
-953 -656 0
953 656 0
-954 -659 0
954 659 0
-955 -662 0
955 662 0
-956 -665 0
956 665 0
-957 -668 0
957 668 0
-958 -671 0
958 671 0
-959 -674 0
959 674 0
-960 -677 0
960 677 0
-961 -680 0
961 680 0
-962 -683 0
962 683 0
-963 -686 0
963 686 0
-964 -689 0
964 689 0
-965 -692 0
965 692 0
-966 -695 0
966 695 0
-967 -698 0
967 698 0
699 0
